Version identifier: 20.1.0.0 | 2020-11-10 | 9bedb6d68
CPXPARAM_Threads                                 1
CPXPARAM_TimeLimit                               7200
CPXPARAM_MIP_Tolerances_MIPGap                   0
Generic callback                                 0x60
1 of 1 MIP starts provided solutions.
MIP start 'm1' defined initial solution with objective 1598.9676.
Tried aggregator 1 time.
Reduced MIP has 400501 rows, 400801 columns, and 1200800 nonzeros.
Reduced MIP has 800 binaries, 0 generals, 0 SOSs, and 0 indicators.
Presolve time = 0.41 sec. (379.65 ticks)
Probing time = 0.05 sec. (50.06 ticks)
Tried aggregator 1 time.
Reduced MIP has 400501 rows, 400801 columns, and 1200800 nonzeros.
Reduced MIP has 800 binaries, 0 generals, 0 SOSs, and 0 indicators.
Presolve time = 0.41 sec. (373.16 ticks)
Probing time = 0.05 sec. (50.06 ticks)
MIP emphasis: balance optimality and feasibility.
MIP search method: dynamic search.
Parallel mode: none, using 1 thread.
Root relaxation solution time = 0.13 sec. (154.24 ticks)

        Nodes                                         Cuts/
   Node  Left     Objective  IInf  Best Integer    Best Bound    ItCnt     Gap

*     0+    0                         1598.9676     2716.0000            69.86%
      0     0     1606.7462     8     1598.9676     2716.0000        0   69.86%
*     0+    0                         1606.5832     1606.7462             0.01%
      0     2     1606.7340     8     1606.5832     1606.7339        0    0.01%
Elapsed time = 137.59 sec. (121455.76 ticks, tree = 0.01 MB, solutions = 2)
      1     3     1606.6184     6     1606.5832     1606.7339     1125    0.01%
*     2     2      integral     0     1606.7027     1606.7339     1266    0.00%
      2     0     1606.7027     0     1606.7027     1606.7027     1266    0.00%

User cuts applied:  3

Root node processing (before b&c):
  Real time             =  137.57 sec. (121443.51 ticks)
Sequential b&c:
  Real time             =   19.14 sec. (9289.39 ticks)
                          ------------
Total (root+branch&cut) =  156.71 sec. (130732.90 ticks)
@Parameters: 
is_S_cut                                true
is_add_all_yinF                         true
is_start_value                          true
is_usercut                              true
is_visualization                        false
uc_only_rootnode                        false

data                                    Qi
fn                                      data/Qi/instance_500_800.csv
mode                                    ZLP
solver                                  cplex

p                                       10
r                                       5

EPS                                     1.0e-06
EPS_vio                                 1.0e-04
beta                                    0.10
gap                                     0.00
nodelimit                               Inf
timelimit                               7200.00


@PrintInfos
ItCnt: 1266
Current gap: 0.00 %
Termination Status: OPTIMAL
Primal Status: FEASIBLE_POINT
Solve Time: 156.71 sec
Objective Value: 1606.702729
Number of Nodes:      3

CutInfo: [phase] num / time (sec) 
ZLP             [phase1]     0 / 0.00 [rLC]     5 / 11.32 [rUC]     2 / 3.20 [sLC]     0 / 1.25 [sUC]     1 / 4.43 
OldSubmodular   [phase1]     0 / 0.00 [rLC]     0 / 0.00 [rUC]     0 / 0.00 [sLC]     0 / 0.00 [sUC]     0 / 0.00 
NewSubmodular   [phase1]     0 / 0.00 [rLC]     0 / 0.00 [rUC]     0 / 0.00 [sLC]     0 / 0.00 [sUC]     0 / 0.00 
PMP             [phase1]     0 / 0.00 [rLC]     7 / 7.74 [rUC]     2 / 2.10 [sLC]     1 / 1.07 [sUC]     3 / 3.37 
Separation Round: [phase1] 0  [rLC] 7  [rUC] 2  [sLC] 1  [sUC] 3
Root Best Bound 1606.702729
Root Best Integer: 1606.702729
Best Bound: 1606.702729
Best Integer: 1606.702729

